p cnf 19 9
a 1 0
e 2 3 4 5 0
a 6 0
e 7 0
a 8 9 10 11 12 13 0
e 14 15 16 0
a 17 0
e 18 19 0
-7 -3 16 13 4 0
-4 -14 13 18 6 0
-3 16 -17 12 0
10 11 -17 9 0
19 -5 9 -6 -3 0
-8 -3 -10 6 -14 0
-19 -2 14 16 0
-9 4 13 8 12 0
17 -10 -16 3 2 0
